33D32945 STP File, STP Format Version 1.0

SECTION Comment
Name    "Series B" 
Creator "A. M. Costa" 
Format  "Z.H. Fu and J. K. Hao"
Remark  "Sparse graph with random weights"
#TotalEdgeCost 769
#BudgetFraction 5
END 

SECTION Graph 
Nodes 75 
Edges 150 
Root 1
Budget 153
HopLimit 9
E 1 18 9 
E 1 33 10 
E 1 42 9 
E 2 5 6 
E 2 17 2 
E 2 19 6 
E 2 27 7 
E 2 29 5 
E 2 53 7 
E 2 55 4 
E 3 11 2 
E 3 31 3 
E 3 58 4 
E 4 66 8 
E 5 17 2 
E 5 57 9 
E 5 60 3 
E 6 30 5 
E 7 21 3 
E 7 49 5 
E 7 67 5 
E 8 9 1 
E 8 23 6 
E 8 30 9 
E 8 32 1 
E 8 54 9 
E 8 67 8 
E 9 37 7 
E 9 47 10 
E 10 15 6 
E 10 22 8 
E 10 66 1 
E 10 67 3 
E 11 42 6 
E 11 44 7 
E 11 63 3 
E 12 57 2 
E 12 67 9 
E 12 72 9 
E 13 16 5 
E 13 39 2 
E 13 52 8 
E 14 60 7 
E 14 75 2 
E 16 22 10 
E 16 26 7 
E 16 40 6 
E 16 69 3 
E 17 22 1 
E 17 33 6 
E 17 45 4 
E 17 47 5 
E 17 71 4 
E 18 52 8 
E 19 26 7 
E 19 42 5 
E 20 30 2 
E 20 36 7 
E 20 40 10 
E 20 46 2 
E 21 45 3 
E 21 47 5 
E 22 24 3 
E 22 34 4 
E 22 48 6 
E 23 36 1 
E 23 37 7 
E 23 38 4 
E 23 52 1 
E 23 66 6 
E 24 25 3 
E 24 40 3 
E 24 55 3 
E 24 57 7 
E 24 59 2 
E 25 54 7 
E 26 29 1 
E 26 66 9 
E 27 30 4 
E 27 75 2 
E 28 44 7 
E 28 54 2 
E 28 56 3 
E 28 61 8 
E 28 73 9 
E 29 59 10 
E 29 73 8 
E 30 31 5 
E 30 41 6 
E 30 47 8 
E 30 65 3 
E 31 41 3 
E 31 71 3 
E 32 45 5 
E 32 52 6 
E 32 75 8 
E 33 36 9 
E 33 72 8 
E 34 36 10 
E 34 56 10 
E 35 38 4 
E 35 73 5 
E 36 69 7 
E 37 39 5 
E 37 55 2 
E 37 73 7 
E 38 45 3 
E 38 53 4 
E 38 74 9 
E 39 48 8 
E 39 59 4 
E 39 63 3 
E 40 51 5 
E 40 71 5 
E 42 58 7 
E 42 61 3 
E 42 73 6 
E 43 58 2 
E 43 59 5 
E 43 70 5 
E 43 71 7 
E 44 55 7 
E 44 62 3 
E 44 65 2 
E 46 50 4 
E 46 55 3 
E 46 73 7 
E 47 53 7 
E 47 60 9 
E 47 70 5 
E 48 62 10 
E 49 65 5 
E 50 74 6 
E 51 52 5 
E 51 53 4 
E 51 56 2 
E 51 64 2 
E 52 62 2 
E 52 67 1 
E 55 66 2 
E 59 68 2 
E 59 75 9 
E 60 71 1 
E 61 72 6 
E 64 65 1 
E 64 75 2 
E 65 73 6 
E 65 74 2 
E 67 69 2 
E 67 73 4 
END 

SECTION ProfitableVertices 
ProfitableVertices 19 
PV 1 6
PV 17 99
PV 20 13
PV 24 81
PV 27 62
PV 28 59
PV 30 48
PV 31 80
PV 34 11
PV 35 43
PV 42 13
PV 44 72
PV 48 26
PV 49 83
PV 53 8
PV 54 22
PV 64 67
PV 68 19
PV 74 81
END 

EOF 
